param set_len = 30;
param target_sum = 8871238382;
param values := [1] 918744166 [2] 249960225 [3] 416822927 [4] 355725781 [5] 939826228 [6] 634113720 [7] 412891113 [8] 617199899 [9] 164758 [10] 450025599 [11] 612699405 [12] 536106268 [13] 917200913 [14] 306180660 [15] 711174524 [16] 582278504 [17] 583097088 [18] 466032507 [19] 895293217 [20] 775326913 [21] 214024977 [22] 570549120 [23] 519269625 [24] 484562168 [25] 614000921 [26] 730229944 [27] 660636936 [28] 954882215 [29] 886228474 [30] 207747341 ;
